# opt b3lyp/6-31g(d,p)

Title

0 1
 F                 -4.42700000    3.47100000   -2.11500000
 O                 -3.67700000   -3.99100000   -0.70400000
 O                 -5.54800000   -0.28100000    0.16000000
 O                  4.22700000   -1.42600000   -1.13200000
 O                 -5.90400000    0.94700000    4.24600000
 O                 -4.88300000    1.73500000    2.49100000
 N                 -0.20900000   -1.33200000   -1.22700000
 N                  3.70700000   -0.44400000    0.89700000
 C                  1.04600000   -1.90700000   -0.96200000
 C                 -1.46500000   -2.07900000   -1.40900000
 C                 -0.11200000    0.07300000   -1.15500000
 C                  1.25800000   -3.38900000   -0.97000000
 C                 -2.27700000   -2.16800000   -0.11800000
 C                  1.93300000   -0.85300000   -0.73400000
 C                  1.21400000    0.37900000   -0.85700000
 C                 -3.72200000   -2.61100000   -0.38900000
 C                 -4.61000000   -2.36000000    0.84600000
 C                 -1.23800000    0.96900000   -1.40400000
 C                  1.91100000   -3.85900000    0.32000000
 C                  2.07100000   -3.81300000   -2.18400000
 C                  1.77600000    1.71700000   -0.71100000
 C                 -4.74200000   -0.86400000    1.16400000
 C                  3.37400000   -0.94200000   -0.40600000
 C                 -5.38600000   -0.68100000    2.55100000
 C                 -2.01300000    1.43000000   -0.33700000
 C                 -1.53100000    1.36900000   -2.71000000
 C                  2.73300000    2.18000000   -1.61700000
 C                  1.35300000    2.54300000    0.33400000
 C                 -3.09600000    2.27100000   -0.56700000
 C                 -2.60300000    2.21800000   -2.95800000
 C                  3.26400000    3.45700000   -1.47300000
 C                  1.89000000    3.81800000    0.47200000
 C                 -3.38300000    2.65900000   -1.88200000
 C                  5.07000000   -0.19800000    1.30600000
 C                 -5.34600000    0.74400000    3.03100000
 C                  2.84500000    4.27500000   -0.42900000
 C                  6.02100000   -1.22400000    1.26000000
 C                  5.41600000    1.05300000    1.83400000
 C                  7.30700000   -0.98900000    1.73100000
 C                  6.70300000    1.27000000    2.30700000
 C                  7.65100000    0.25300000    2.25500000
 H                 -2.04900000   -1.58200000   -2.21100000
 H                 -1.20900000   -3.10200000   -1.76800000
 H                  0.24800000   -3.88300000   -1.04900000
 H                 -1.78700000   -2.85800000    0.59800000
 H                 -2.31500000   -1.17500000    0.38900000
 H                 -4.13600000   -2.04800000   -1.26300000
 H                 -5.61400000   -2.80300000    0.68400000
 H                 -4.18500000   -2.88800000    1.72300000
 H                  1.31200000   -3.58200000    1.19700000
 H                  2.02400000   -4.95100000    0.32400000
 H                  2.91200000   -3.42500000    0.45100000
 H                  2.17500000   -4.90600000   -2.21800000
 H                  1.59000000   -3.49700000   -3.11800000
 H                  3.08200000   -3.38500000   -2.17300000
 H                 -3.71800000   -0.39400000    1.14900000
 H                 -6.44100000   -1.02700000    2.53400000
 H                 -4.86700000   -1.32000000    3.29400000
 H                 -1.76200000    1.13700000    0.69000000
 H                 -0.90800000    1.02000000   -3.54200000
 H                 -4.56200000   -4.24800000   -0.92500000
 H                  3.06400000    1.53300000   -2.43800000
 H                  0.58800000    2.18600000    1.03200000
 H                  3.08000000    0.27100000    1.20500000
 H                 -3.71000000    2.62800000    0.27000000
 H                 -2.83400000    2.53800000   -3.98000000
 H                 -5.33600000    0.64500000    0.15400000
 H                  4.01500000    3.81700000   -2.18500000
 H                  1.55600000    4.46400000    1.29100000
 H                  3.26600000    5.28000000   -0.31900000
 H                  5.76400000   -2.20500000    0.84300000
 H                  4.68200000    1.86800000    1.88000000
 H                 -5.84700000    1.86900000    4.48100000
 H                  8.05300000   -1.78900000    1.68900000
 H                  6.97300000    2.24700000    2.71900000
 H                  8.66500000    0.43000000    2.62600000

