#n B3LYP/6-31G(d,p) Opt

 Title

0 1
F         -4.42700        3.47100       -2.11500
O         -3.67700       -3.99100       -0.70400
O         -5.54800       -0.28100        0.16000
O          4.22700       -1.42600       -1.13200
O         -5.90400        0.94700        4.24600
O         -4.88300        1.73500        2.49100
N         -0.20900       -1.33200       -1.22700
N          3.70700       -0.44400        0.89700
C          1.04600       -1.90700       -0.96200
C         -1.46500       -2.07900       -1.40900
C         -0.11200        0.07300       -1.15500
C          1.25800       -3.38900       -0.97000
C         -2.27700       -2.16800       -0.11800
C          1.93300       -0.85300       -0.73400
C          1.21400        0.37900       -0.85700
C         -3.72200       -2.61100       -0.38900
C         -4.61000       -2.36000        0.84600
C         -1.23800        0.96900       -1.40400
C          1.91100       -3.85900        0.32000
C          2.07100       -3.81300       -2.18400
C          1.77600        1.71700       -0.71100
C         -4.74200       -0.86400        1.16400
C          3.37400       -0.94200       -0.40600
C         -5.38600       -0.68100        2.55100
C         -2.01300        1.43000       -0.33700
C         -1.53100        1.36900       -2.71000
C          2.73300        2.18000       -1.61700
C          1.35300        2.54300        0.33400
C         -3.09600        2.27100       -0.56700
C         -2.60300        2.21800       -2.95800
C          3.26400        3.45700       -1.47300
C          1.89000        3.81800        0.47200
C         -3.38300        2.65900       -1.88200
C          5.07000       -0.19800        1.30600
C         -5.34600        0.74400        3.03100
C          2.84500        4.27500       -0.42900
C          6.02100       -1.22400        1.26000
C          5.41600        1.05300        1.83400
C          7.30700       -0.98900        1.73100
C          6.70300        1.27000        2.30700
C          7.65100        0.25300        2.25500
H         -2.04900       -1.58200       -2.21100
H         -1.20900       -3.10200       -1.76800
H          0.24800       -3.88300       -1.04900
H         -1.78700       -2.85800        0.59800
H         -2.31500       -1.17500        0.38900
H         -4.13600       -2.04800       -1.26300
H         -5.61400       -2.80300        0.68400
H         -4.18500       -2.88800        1.72300
H          1.31200       -3.58200        1.19700
H          2.02400       -4.95100        0.32400
H          2.91200       -3.42500        0.45100
H          2.17500       -4.90600       -2.21800
H          1.59000       -3.49700       -3.11800
H          3.08200       -3.38500       -2.17300
H         -3.71800       -0.39400        1.14900
H         -6.44100       -1.02700        2.53400
H         -4.86700       -1.32000        3.29400
H         -1.76200        1.13700        0.69000
H         -0.90800        1.02000       -3.54200
H         -4.56200       -4.24800       -0.92500
H          3.06400        1.53300       -2.43800
H          0.58800        2.18600        1.03200
H          3.08000        0.27100        1.20500
H         -3.71000        2.62800        0.27000
H         -2.83400        2.53800       -3.98000
H         -5.33600        0.64500        0.15400
H          4.01500        3.81700       -2.18500
H          1.55600        4.46400        1.29100
H          3.26600        5.28000       -0.31900
H          5.76400       -2.20500        0.84300
H          4.68200        1.86800        1.88000
H         -5.84700        1.86900        4.48100
H          8.05300       -1.78900        1.68900
H          6.97300        2.24700        2.71900
H          8.66500        0.43000        2.62600

